12 48 6 10
10 19 19 8 6 11 9 6 6 13 8 10 20 14 19 17 18 9 12 9 12 7 9 12 10 4 17 8 10 19 9 5 4 9 20 5 5 19 13 1 8 19 2 14 3 1 13 17 
10.88 1.8 11.39 13.75 1.23 2.34 4.3 13.45 12.58 11.33 6.16 7.82 10.89 6.2 2.11 4.2 8.37 5.98 11.68 9.24 1.51 9.77 5.8 9.94 12.1 0.75 9.34 14.24 15.69 13.24 6.57 3.51 13.92 5.2 3.69 10.21 7.19 7.48 1.07 2.8 9.84 15.98 13.11 11.83 6.07 10.96 12.68 14.01 
15.02 9.26 10.01 12.75 2.67 14.45 15.3 14.92 3.67 13.94 2.86 8.21 4.41 2.4 13.74 12.78 13.48 15.49 0.93 5.88 0.26 14.96 4.93 15.75 4.16 13.4 0.01 1.65 1.53 4.51 15.98 12.6 7 3.22 12.25 15.77 15.25 5.37 9.49 14.6 6.93 3.49 6.27 13.95 9.84 6.5 11.36 15.04 
1.63 7.57 8.68 9.13 11.56 1.22 6.23 11.08 13.39 14.29 6.02 13.44 12.89 15.02 12.53 4.16 13.67 8.03 0.19 2.82 10.4 2.6 2.87 0.66 10.51 2.25 1.17 13.5 3.59 4.03 7.01 8.51 3.51 7.46 13.46 13.33 7.78 8.65 9.82 10.68 15.83 1.59 11.31 7.35 5.44 0.32 2.84 8.69 
12.12 1.58 7.29 6.31 6.09 1.2 9.89 11.9 1.01 13.85 12.53 4.71 15.41 1.97 1.12 2.27 10.76 7.48 11.39 12.07 10.82 11.27 6.68 7.22 12.69 4.32 3.26 13.08 9.05 7.66 1.05 3.49 6.63 3.59 7.23 15.36 1.96 2.69 7.09 3.01 4.87 0.26 5.66 11.38 6.61 9.44 14.43 9.25 
14.58 2.75 12.56 3.45 1.23 0.29 3.6 9.45 5.28 3.96 11.06 9.81 5.1 12.5 11.61 4.06 0.63 9.19 8.27 4.43 7.54 0.23 15.37 9.08 13.69 10.16 15.73 5.13 7.3 15.28 11.86 8.64 15.38 3.17 6.01 4.39 0.76 2.44 1.59 1.5 1.08 8.86 8.54 0.81 15.19 0.45 13.63 12.64 
5.86 2.93 15.25 12.23 4.71 11.75 2.98 2.05 14.78 6.42 12.74 1.17 14.72 1.65 0.58 10.45 15.86 3.28 2.15 0.78 13 7.68 12.94 0.94 9.07 0.16 2.56 1.34 8.93 3.29 12.77 3.38 5.3 13.23 6.55 13.53 7.2 0.7 7.09 13.25 0.14 9.52 5.41 2.61 10.67 5.14 8.73 9.07 
8 8 8 8 8 8 8 8 8 8 8 8 8 8 8 8 8 8 8 8 8 8 8 8 8 8 8 8 8 8 8 8 8 8 8 8 8 8 8 8 8 8 8 8 8 8 8 8 
7.8 0.97 4.29 3.64 15.83 11.6 9.41 15.23 3.13 2.49 14.07 0.37 11.22 13.68 7.47 13.8 15.49 10.81 13.39 12.16 5.63 15.04 1.9 13.51 15.87 0.17 13.07 5.49 5.99 6.48 9.46 1.55 10.05 8.75 5.26 9.01 14.1 2.67 14.05 14.6 2.31 8.67 14.07 2.13 10.4 2.36 14.75 0.13 
2.61 1.21 12 13.9 12.01 15.89 14.28 15.18 13.88 7.8 15.8 7.51 8.52 15.16 0.67 11.82 3.51 2.16 13.97 2.01 6.59 2.72 6.47 12.9 6.7 15.67 1.61 5.4 7.45 3.5 1.82 4.81 2.75 12.57 10.33 15.46 2.31 2.86 0.91 12.15 6.63 5.18 0.51 8.32 3.49 0.13 2.91 10.92 
7.67 12.96 1.35 7.74 10.21 3.66 12.11 15.92 4.95 9.2 10.95 14.99 9.39 6.22 2.13 8.88 9.28 0.5 11.92 12.27 15.43 0.96 9.42 9.42 14.09 10.87 12.31 14.02 15.2 10.22 0.66 11.72 7.36 12.57 3.86 9.8 8.7 9.61 8.02 10.27 7.85 14.25 4.61 5.15 6.72 13.65 4.57 12.32 
12.05 14.7 5.8 9.84 8.81 9.13 12.84 5.58 7.91 6.42 9.24 3.7 1.86 9.38 1.39 13.48 10.89 5.12 2.48 7.23 4.07 9.15 6.86 2.3 13.04 7.9 8 6.36 15.58 5.11 3.03 11.16 14.79 8.65 8.13 15.41 14.88 6.52 15.26 7.76 1.29 7.91 4.53 5.74 1.5 1.32 0.34 8.21 
8.33 3.44 5.47 5.31 3.08 6.35 8.93 11.85 7.01 4.02 2.87 14 15.04 14.62 0.63 11.75 2.3 10.13 5.73 13.61 5.35 8.52 7.8 5.24 11.71 2.59 8.31 14.94 15.47 11.91 13.76 3.96 6.49 14.37 12.58 14.95 5.71 10.86 3.13 2.61 15.6 10.28 3.23 7.3 6.42 13.28 5.85 7.91 
1 1 1 1 1 1 1 1 1 1 1 1 1 1 1 1 1 1 1 1 1 1 1 1 1 1 1 1 1 1 1 1 1 1 1 1 1 1 1 1 1 1 1 1 1 1 1 1 
1 1 1 1 1 1 1 1 1 1 1 1 1 1 1 1 1 1 1 1 1 1 1 1 1 1 1 1 1 1 1 1 1 1 1 1 1 1 1 1 1 1 1 1 1 1 1 1 
1 1 1 1 1 1 1 1 1 1 1 1 1 1 1 1 1 1 1 1 1 1 1 1 1 1 1 1 1 1 1 1 1 1 1 1 1 1 1 1 1 1 1 1 1 1 1 1 
1 1 1 1 1 1 1 1 1 1 1 1 1 1 1 1 1 1 1 1 1 1 1 1 1 1 1 1 1 1 1 1 1 1 1 1 1 1 1 1 1 1 1 1 1 1 1 1 
1 1 1 1 1 1 1 1 1 1 1 1 1 1 1 1 1 1 1 1 1 1 1 1 1 1 1 1 1 1 1 1 1 1 1 1 1 1 1 1 1 1 1 1 1 1 1 1 
1 1 1 1 1 1 1 1 1 1 1 1 1 1 1 1 1 1 1 1 1 1 1 1 1 1 1 1 1 1 1 1 1 1 1 1 1 1 1 1 1 1 1 1 1 1 1 1 
1 1 1 1 1 1 1 1 1 1 1 1 1 1 1 1 1 1 1 1 1 1 1 1 1 1 1 1 1 1 1 1 1 1 1 1 1 1 1 1 1 1 1 1 1 1 1 1 
1 1 1 1 1 1 1 1 1 1 1 1 1 1 1 1 1 1 1 1 1 1 1 1 1 1 1 1 1 1 1 1 1 1 1 1 1 1 1 1 1 1 1 1 1 1 1 1 
1 1 1 1 1 1 1 1 1 1 1 1 1 1 1 1 1 1 1 1 1 1 1 1 1 1 1 1 1 1 1 1 1 1 1 1 1 1 1 1 1 1 1 1 1 1 1 1 
1 1 1 1 1 1 1 1 1 1 1 1 1 1 1 1 1 1 1 1 1 1 1 1 1 1 1 1 1 1 1 1 1 1 1 1 1 1 1 1 1 1 1 1 1 1 1 1 
1 1 1 1 1 1 1 1 1 1 1 1 1 1 1 1 1 1 1 1 1 1 1 1 1 1 1 1 1 1 1 1 1 1 1 1 1 1 1 1 1 1 1 1 1 1 1 1 
1 1 1 1 1 1 1 1 1 1 1 1 1 1 1 1 1 1 1 1 1 1 1 1 1 1 1 1 1 1 1 1 1 1 1 1 1 1 1 1 1 1 1 1 1 1 1 1 
0.01 0.01 0.01 0.01 0.01 0.01 0.01 0.01 0.01 0.01 0.01 0.01 0.01 0.01 0.01 0.01 0.01 0.01 0.01 0.01 0.01 0.01 0.01 0.01 0.01 0.01 0.01 0.01 0.01 0.01 0.01 0.01 0.01 0.01 0.01 0.01 0.01 0.01 0.01 0.01 0.01 0.01 0.01 0.01 0.01 0.01 0.01 0.01 
0.02 0.02 0.02 0.02 0.02 0.02 0.02 0.02 0.02 0.02 0.02 0.02 0.02 0.02 0.02 0.02 0.02 0.02 0.02 0.02 0.02 0.02 0.02 0.02 0.02 0.02 0.02 0.02 0.02 0.02 0.02 0.02 0.02 0.02 0.02 0.02 0.02 0.02 0.02 0.02 0.02 0.02 0.02 0.02 0.02 0.02 0.02 0.02 
0.03 0.03 0.03 0.03 0.03 0.03 0.03 0.03 0.03 0.03 0.03 0.03 0.03 0.03 0.03 0.03 0.03 0.03 0.03 0.03 0.03 0.03 0.03 0.03 0.03 0.03 0.03 0.03 0.03 0.03 0.03 0.03 0.03 0.03 0.03 0.03 0.03 0.03 0.03 0.03 0.03 0.03 0.03 0.03 0.03 0.03 0.03 0.03 
0.04 0.04 0.04 0.04 0.04 0.04 0.04 0.04 0.04 0.04 0.04 0.04 0.04 0.04 0.04 0.04 0.04 0.04 0.04 0.04 0.04 0.04 0.04 0.04 0.04 0.04 0.04 0.04 0.04 0.04 0.04 0.04 0.04 0.04 0.04 0.04 0.04 0.04 0.04 0.04 0.04 0.04 0.04 0.04 0.04 0.04 0.04 0.04 
0.05 0.05 0.05 0.05 0.05 0.05 0.05 0.05 0.05 0.05 0.05 0.05 0.05 0.05 0.05 0.05 0.05 0.05 0.05 0.05 0.05 0.05 0.05 0.05 0.05 0.05 0.05 0.05 0.05 0.05 0.05 0.05 0.05 0.05 0.05 0.05 0.05 0.05 0.05 0.05 0.05 0.05 0.05 0.05 0.05 0.05 0.05 0.05 
0.06 0.06 0.06 0.06 0.06 0.06 0.06 0.06 0.06 0.06 0.06 0.06 0.06 0.06 0.06 0.06 0.06 0.06 0.06 0.06 0.06 0.06 0.06 0.06 0.06 0.06 0.06 0.06 0.06 0.06 0.06 0.06 0.06 0.06 0.06 0.06 0.06 0.06 0.06 0.06 0.06 0.06 0.06 0.06 0.06 0.06 0.06 0.06 
0.07 0.07 0.07 0.07 0.07 0.07 0.07 0.07 0.07 0.07 0.07 0.07 0.07 0.07 0.07 0.07 0.07 0.07 0.07 0.07 0.07 0.07 0.07 0.07 0.07 0.07 0.07 0.07 0.07 0.07 0.07 0.07 0.07 0.07 0.07 0.07 0.07 0.07 0.07 0.07 0.07 0.07 0.07 0.07 0.07 0.07 0.07 0.07 
0.2 0.2 0.2 0.2 0.2 0.2 0.2 0.2 0.2 0.2 0.2 0.2 0.2 0.2 0.2 0.2 0.2 0.2 0.2 0.2 0.2 0.2 0.2 0.2 0.2 0.2 0.2 0.2 0.2 0.2 0.2 0.2 0.2 0.2 0.2 0.2 0.2 0.2 0.2 0.2 0.2 0.2 0.2 0.2 0.2 0.2 0.2 0.2 
0.4 0.4 0.4 0.4 0.4 0.4 0.4 0.4 0.4 0.4 0.4 0.4 0.4 0.4 0.4 0.4 0.4 0.4 0.4 0.4 0.4 0.4 0.4 0.4 0.4 0.4 0.4 0.4 0.4 0.4 0.4 0.4 0.4 0.4 0.4 0.4 0.4 0.4 0.4 0.4 0.4 0.4 0.4 0.4 0.4 0.4 0.4 0.4 
0.6 0.6 0.6 0.6 0.6 0.6 0.6 0.6 0.6 0.6 0.6 0.6 0.6 0.6 0.6 0.6 0.6 0.6 0.6 0.6 0.6 0.6 0.6 0.6 0.6 0.6 0.6 0.6 0.6 0.6 0.6 0.6 0.6 0.6 0.6 0.6 0.6 0.6 0.6 0.6 0.6 0.6 0.6 0.6 0.6 0.6 0.6 0.6 
0.8 0.8 0.8 0.8 0.8 0.8 0.8 0.8 0.8 0.8 0.8 0.8 0.8 0.8 0.8 0.8 0.8 0.8 0.8 0.8 0.8 0.8 0.8 0.8 0.8 0.8 0.8 0.8 0.8 0.8 0.8 0.8 0.8 0.8 0.8 0.8 0.8 0.8 0.8 0.8 0.8 0.8 0.8 0.8 0.8 0.8 0.8 0.8 
1 1 1 1 1 1 1 1 1 1 1 1 1 1 1 1 1 1 1 1 1 1 1 1 1 1 1 1 1 1 1 1 1 1 1 1 1 1 1 1 1 1 1 1 1 1 1 1 
